language Essence 1.3

letting class be
        function(1 --> 3, 2 --> 6, 3 --> 1, 4 --> 2, 5 --> 2, 6 --> 6, 7 --> 10, 8 --> 8, 9 --> 9, 10 --> 1, 11 --> 5,
                 12 --> 8, 13 --> 7, 14 --> 10, 15 --> 2, 16 --> 9, 17 --> 10, 18 --> 4, 19 --> 2, 20 --> 10, 21 --> 6,
                 22 --> 10, 23 --> 9, 24 --> 4, 25 --> 1, 26 --> 3, 27 --> 8, 28 --> 1, 29 --> 4, 30 --> 6)
letting deck_length be 72
letting deck_width be 99
letting length be
        function(1 --> 57, 2 --> 63, 3 --> 60, 4 --> 36, 5 --> 7, 6 --> 54, 7 --> 65, 8 --> 16, 9 --> 35, 10 --> 43,
                 11 --> 42, 12 --> 39, 13 --> 18, 14 --> 39, 15 --> 10, 16 --> 44, 17 --> 67, 18 --> 12, 19 --> 48,
                 20 --> 61, 21 --> 52, 22 --> 38, 23 --> 7, 24 --> 69, 25 --> 18, 26 --> 23, 27 --> 49, 28 --> 1,
                 29 --> 46, 30 --> 22)
letting n_classes be 10
letting n_containers be 30
letting separation be function()
letting width be
        function(1 --> 1, 2 --> 1, 3 --> 1, 4 --> 1, 5 --> 1, 6 --> 1, 7 --> 3, 8 --> 2, 9 --> 1, 10 --> 1, 11 --> 1,
                 12 --> 1, 13 --> 1, 14 --> 1, 15 --> 1, 16 --> 1, 17 --> 29, 18 --> 1, 19 --> 1, 20 --> 29, 21 --> 1,
                 22 --> 1, 23 --> 1, 24 --> 26, 25 --> 1, 26 --> 1, 27 --> 3, 28 --> 7, 29 --> 1, 30 --> 1)
